32      4       
12      12      14      14      
0       0       0       0       0       5       2       4       6       7       17      
3       5       1       8       1       4       3       5       8       10      
9       1       1       5       3       4       11      12      15      23      
10      1       1       1       10      3       9       10      13      
10      1       1       5       2       5       11      13      14      23      31      
5       6       3       3       7       4       10      15      16      20      
10      1       5       1       10      3       10      20      23      
7       7       1       1       6       4       12      14      21      23      
9       1       6       4       1       6       14      20      21      23      29      30      
9       1       1       1       2       5       14      21      29      30      31      
10      3       2       5       1       5       16      18      20      28      29      
7       1       6       1       1       6       19      22      28      29      30      31      
4       1       1       1       6       5       19      20      22      28      29      
2       5       1       4       1       4       18      19      27      28      
3       5       3       2       4       4       21      26      27      28      
6       1       4       5       1       4       22      24      26      30      
9       1       2       1       3       4       22      24      27      31      
3       1       1       3       1       2       22      24      
1       1       6       4       6       2       24      26      
7       4       5       2       1       2       24      27      
3       10      1       2       1       2       24      25      
3       5       5       1       2       1       25      
2       5       1       1       5       1       25      
10      1       11      6       1       1       32      
2       3       1       1       7       1       32      
9       2       11      10      1       1       32      
2       6       5       6       5       1       32      
8       1       1       13      7       1       32      
8       4       1       1       2       1       32      
10      1       1       1       2       1       32      
4       5       1       6       5       1       32      
0       0       0       0       0       0       
